Version identifier: 12.10.0.0 | 2019-11-26 | 843d4de
CPXPARAM_WorkMem                                 16384
CPXPARAM_MIP_Limits_TreeMemory                   24576
Tried aggregator 2 times.
MIP Presolve modified 11 coefficients.
Aggregator did 30 substitutions.
Reduced MIP has 139 rows, 180 columns, and 656 nonzeros.
Reduced MIP has 180 binaries, 0 generals, 0 SOSs, and 0 indicators.
Presolve time = 0,00 sec. (0,68 ticks)
Found incumbent of value 416,000000 after 0,00 sec. (1,16 ticks)
Probing time = 0,00 sec. (0,20 ticks)
Tried aggregator 1 time.
Detecting symmetries...
MIP Presolve eliminated 36 rows and 0 columns.
MIP Presolve added 72 rows and 0 columns.
Reduced MIP has 175 rows, 180 columns, and 692 nonzeros.
Reduced MIP has 180 binaries, 0 generals, 0 SOSs, and 0 indicators.
Presolve time = 0,00 sec. (0,72 ticks)
Probing time = 0,00 sec. (0,20 ticks)
Clique table members: 431.
MIP emphasis: balance optimality and feasibility.
MIP search method: dynamic search.
Parallel mode: deterministic, using up to 16 threads.
Root relaxation solution time = 0,00 sec. (0,73 ticks)

        Nodes                                         Cuts/
   Node  Left     Objective  IInf  Best Integer    Best Bound    ItCnt     Gap

*     0+    0                          416,0000        0,0000           100,00%
*     0+    0                          203,0000        0,0000           100,00%
*     0+    0                          194,0000        0,0000           100,00%
*     0+    0                          185,0000        0,0000           100,00%
      0     0      104,0000    74      185,0000      104,0000      107   43,78%
      0     0      104,0000    74      185,0000     Cuts: 143      133   43,78%
      0     0      104,0000    74      185,0000      Cuts: 75      190   43,78%
*     0+    0                          182,0000      104,0000            42,86%
*     0+    0                          174,0000      104,0000            40,23%
Detecting symmetries...
      0     2      104,0000   124      174,0000      104,0000      190   40,23%
Elapsed time = 0,07 sec. (24,99 ticks, tree = 0,02 MB, solutions = 6)
*  3381   896      integral     0      172,0000      158,8350    70408    7,65%

Clique cuts applied:  51
Cover cuts applied:  188
Mixed integer rounding cuts applied:  2
Zero-half cuts applied:  3

Root node processing (before b&c):
  Real time             =    0,06 sec. (24,89 ticks)
Parallel b&c, 16 threads:
  Real time             =    0,25 sec. (128,37 ticks)
  Sync time (average)   =    0,12 sec.
  Wait time (average)   =    0,00 sec.
                          ------------
Total (root+branch&cut) =    0,31 sec. (153,26 ticks)
